% ----DATA VARIABLES----

t=12;%number of attributes
k=8;%max length of the support set
n=10;%number of positive instances
m=10;%number of negative instances
c=2;%number of atMostOne Constraints

% ----OMEGAS----

omegap= [| 0, 0, 0, 0, 1, 1, 1, 0, 0, 0, 0, 0|
 1, 1, 1, 0, 1, 1, 1, 1, 0, 1, 0, 0|
 1, 1, 1, 0, 1, 0, 0, 1, 0, 1, 1, 1|
 1, 1, 0, 0, 1, 0, 0, 0, 1, 1, 0, 0|
 1, 1, 0, 1, 1, 1, 0, 1, 1, 1, 0, 0|
 1, 1, 1, 0, 1, 1, 1, 0, 1, 0, 1, 1|
 1, 1, 1, 1, 1, 0, 0, 0, 0, 1, 1, 0|
 1, 0, 0, 1, 1, 0, 0, 1, 0, 0, 0, 1|
 0, 1, 0, 1, 0, 1, 0, 1, 1, 1, 0, 0|
 0, 0, 1, 1, 0, 0, 0, 1, 0, 0, 0, 0|];

omegan= [| 1, 0, 1, 0, 1, 1, 0, 1, 1, 0, 0, 0|
 1, 1, 1, 1, 0, 1, 0, 0, 0, 1, 1, 1|
 0, 0, 0, 1, 1, 0, 1, 1, 0, 1, 0, 1|
 1, 0, 0, 1, 0, 1, 1, 1, 0, 1, 1, 0|
 1, 1, 0, 1, 1, 0, 1, 1, 1, 0, 1, 0|
 0, 0, 0, 0, 0, 1, 1, 1, 1, 1, 0, 1|
 1, 1, 1, 0, 1, 0, 1, 1, 1, 0, 1, 0|
 1, 0, 1, 1, 0, 1, 1, 1, 0, 1, 1, 1|
 1, 0, 0, 1, 0, 1, 0, 0, 1, 0, 0, 0|
 0, 0, 0, 0, 1, 0, 1, 0, 0, 1, 1, 1|];

% ----CONSTRAINS----

atMostOne=[{8, 4, 4, 9, 1}, {3, 4, 3}];